17 4 3 1 8 11 2 16 12 9 5 18 7 19 13 14 10 6 0 15  
17 4 11 8 9 3 1 2 16 14 0 6 5 13 19 15 10 7 18 12  
17 4 3 1 8 2 16 11 14 6 13 9 5 18 0 15 7 19 12 10  
17 4 3 1 8 2 16 14 11 6 0 5 19 7 9 15 10 13 18 12  
17 4 3 1 8 2 16 14 11 6 15 9 0 7 19 10 5 13 18 12  
17 4 11 8 9 3 1 2 16 14 0 13 7 19 6 5 18 12 10 15  
17 4 11 8 9 3 1 2 16 14 0 13 7 19 6 5 18 15 10 12  
17 4 11 8 9 3 1 2 16 14 0 7 19 13 6 5 18 12 15 10  
17 4 11 8 9 3 1 2 16 14 0 13 7 19 6 5 18 12 10 15  
17 4 3 1 8 2 16 14 11 6 0 5 19 7 18 15 9 13 10 12  
17 4 11 8 9 3 1 2 16 6 0 18 7 19 15 10 13 12 14 5  
17 4 11 8 9 3 1 16 14 2 6 13 0 18 15 7 19 12 10 5  
17 4 11 8 9 3 1 2 16 14 0 13 7 19 6 5 18 15 10 12  
17 4 8 9 3 1 14 2 16 12 13 11 6 5 18 7 19 15 10 0  
17 4 11 8 9 3 1 2 16 14 0 12 7 19 13 6 5 18 10 15  
17 4 11 8 9 3 1 2 16 14 12 7 19 13 6 5 18 15 10 0  
17 4 11 8 9 3 1 2 16 14 0 6 7 19 15 10 13 18 12 5  
17 4 3 1 8 2 16 14 11 6 13 5 19 9 15 10 12 0 7 18  
17 4 3 1 8 2 16 14 11 6 5 13 19 9 15 10 0 7 18 12  
17 4 3 1 8 2 16 14 11 6 13 9 5 18 15 7 19 12 10 0  
17 4 8 11 9 3 1 2 16 14 0 7 19 13 6 5 18 12 10 15  
17 4 11 8 9 3 1 14 16 2 13 6 0 18 15 7 19 5 12 10  
17 4 3 1 8 2 16 14 11 6 5 0 19 7 9 15 10 13 18 12  
17 4 11 8 9 3 1 2 16 14 6 13 0 18 15 7 19 10 12 5  
17 4 11 8 9 3 1 2 16 6 13 14 15 10 0 5 7 18 12 19  
17 4 11 8 9 3 1 2 16 6 0 14 7 15 19 10 5 13 18 12  
17 4 3 1 8 2 16 14 11 6 0 5 18 7 12 19 10 13 9 15  
17 4 11 8 9 3 1 2 16 6 13 14 15 10 0 5 18 7 19 12  
17 4 11 8 9 3 1 2 16 14 0 7 13 19 6 5 18 12 10 15  
17 4 3 1 8 2 16 14 11 6 13 9 5 18 0 15 7 19 10 12  
17 4 8 11 9 3 1 2 16 12 0 7 19 13 6 5 18 14 15 10  
17 4 3 1 8 2 16 14 11 6 5 13 19 9 15 10 12 7 18 0  
17 4 11 8 9 3 1 2 16 14 13 10 5 18 7 19 12 6 0 15  
17 4 11 8 9 3 1 2 16 14 0 12 7 13 19 6 5 18 10 15  
17 4 8 9 3 1 11 2 16 6 0 7 14 15 19 10 13 12 5 18  
17 4 3 1 8 2 16 14 11 6 5 13 19 9 15 10 12 7 18 0  
17 4 11 8 9 3 1 2 16 6 13 14 15 10 0 5 18 7 19 12  
17 4 11 8 9 3 1 2 16 6 14 0 5 7 18 15 19 10 13 12  
17 4 11 8 9 3 1 2 16 14 0 13 7 19 6 5 18 12 10 15  
17 4 8 9 6 1 11 16 2 3 0 15 7 19 14 10 5 13 18 12  
17 4 3 1 8 2 16 14 11 6 0 5 18 7 19 15 10 13 12 9  
17 4 11 8 10 3 1 2 16 14 13 9 5 18 7 19 12 6 0 15  
17 4 8 9 3 1 11 2 16 6 0 14 15 7 19 10 5 13 18 12  
17 4 3 1 8 2 16 14 11 6 5 13 19 15 9 10 0 7 18 12  
17 4 3 1 8 11 16 2 6 0 14 15 9 5 18 7 19 10 13 12  
17 4 11 8 9 3 1 2 16 14 6 0 5 7 18 19 15 10 13 12  
17 4 11 8 9 3 1 2 16 14 0 7 13 19 6 5 18 10 12 15  
17 4 3 1 8 2 16 14 11 6 5 13 19 9 15 10 0 18 7 12  
17 4 11 8 9 3 1 2 16 6 0 18 7 19 14 15 10 13 12 5  
17 4 3 1 8 2 16 14 11 6 5 13 19 9 15 10 0 18 7 12  
17 4 3 1 8 2 16 14 11 6 5 13 19 9 0 7 18 12 10 15  
17 4 3 1 8 2 16 14 11 6 5 13 19 9 15 10 0 18 7 12  
17 4 8 9 3 1 2 16 12 14 11 5 18 7 19 10 13 6 0 15  
17 4 11 8 9 3 1 2 16 12 5 18 7 19 13 14 10 6 15 0  
17 4 3 1 8 2 16 14 9 6 5 13 11 15 10 0 18 7 12 19  
17 4 3 1 8 2 16 14 11 6 5 13 19 9 0 7 18 15 10 12  
